NAME : HealthcareRouting.13271.tour
COMMENT : Length = 13271
COMMENT : Found by LKH-3 [Keld Helsgaun] Sun Apr 20 18:19:32 2025
TYPE : TOUR
DIMENSION : 18
TOUR_SECTION
3
5
17
4
11
15
2
6
14
10
13
8
9
18
7
16
1
12
-1
EOF
